%mem=1GB
%nproc=8
%chk=ala_gly_2.chk
# M062X/6-311+G(2df,2p) scrf=(smd,solvent=water)

ala_gly_2

0 1
 C       -2.16997000      0.26653000     -0.00530000
 O       -1.65967000      1.35787000     -0.14931000
 O       -3.40578000     -0.03017000     -0.42099000
 H       -3.80912000      0.76158000     -0.82866000
 C       -1.52008000     -0.92112000      0.67566000
 H       -2.05451000     -1.10968000      1.60985000
 N       -0.12803000     -0.69057000      0.95999000
 H        0.12988000     -0.36875000      1.88679000
 H       -1.64814000     -1.79891000      0.03669000
 C        2.06857000      1.54796000      0.22763000
 C        2.11459000      0.02491000      0.35408000
 C        0.75206000     -0.51794000     -0.05033000
 N        3.14973000     -0.51261000     -0.52434000
 O        0.44053000     -0.75265000     -1.22383000
 H        1.31926000      1.97595000      0.90004000
 H        1.82945000      1.83657000     -0.80121000
 H        3.04585000      1.96564000      0.49068000
 H        2.27993000     -0.23415000      1.40860000
 H        3.24596000     -1.51419000     -0.35915000
 H        4.03781000     -0.09420000     -0.25051000

