%mem=1GB
%nproc=8
%chk=ala_gly_ts.chk
# M062X/6-31+G* opt=(ts,noeigen,calcfc) freq scrf=(smd,solvent=water)

ala_gly_ts

0 1
 C       -1.03708000     -2.90858000      0.43905000
 O       -1.45726000     -2.54671000     -0.64015000
 O       -1.10872000     -4.17158000      0.87235000
 H       -1.55540000     -4.72048000      0.19787000
 C       -0.39072000     -2.00931000      1.47351000
 H       -1.06671000     -1.93725000      2.32892000
 N       -0.12803000     -0.69057000      0.95999000
 H       -0.80241000      0.04424000      1.14523000
 H        0.53126000     -2.48528000      1.81789000
 C        2.06857000      1.54796000      0.22763000
 C        2.11459000      0.02491000      0.35408000
 C        0.75206000     -0.51794000     -0.05033000
 N        3.14973000     -0.51261000     -0.52434000
 O        0.44053000     -0.75265000     -1.22383000
 H        1.31926000      1.97595000      0.90004000
 H        1.82945000      1.83657000     -0.80121000
 H        3.04585000      1.96564000      0.49068000
 H        2.27993000     -0.23415000      1.40860000
 H        3.24596000     -1.51419000     -0.35915000
 H        4.03781000     -0.09420000     -0.25051000

