%mem=1GB
%nproc=8
%chk=ala_ser_ts.chk
# M062X/6-31+G* opt=(ts,noeigen,calcfc) freq scrf=(smd,solvent=water)

ala_ser_ts

0 1
 C        1.79945000      2.32877000      0.24675000
 C        0.56606000      1.84498000     -0.52602000
 C        0.98229000      1.50552000     -1.95091000
 N       -0.01064000      0.69455000      0.12540000
 O        1.26843000      0.39423000     -2.34431000
 O        1.04048000      2.59930000     -2.71424000
 H        2.25306000      3.16631000     -0.29213000
 H        2.52803000      1.51594000      0.31916000
 O        1.46544000      2.69252000      1.57327000
 H       -0.16663000      2.65831000     -0.57583000
 H        0.47873000      0.27636000      0.91043000
 H        1.35950000      2.35820000     -3.60639000
 H        0.94057000      3.50986000      1.54876000
 C       -2.82694000     -0.64840000      1.20899000
 C       -2.43106000      0.46761000      0.24431000
 C       -1.09864000      0.08682000     -0.38424000
 N       -3.44706000      0.60710000     -0.79716000
 O       -0.99769000     -0.76856000     -1.27424000
 H       -2.07137000     -0.77719000      1.99004000
 H       -2.94191000     -1.59326000      0.66820000
 H       -3.77967000     -0.39976000      1.68744000
 H       -2.28575000      1.39363000      0.81700000
 H       -3.24641000      1.43738000     -1.35400000
 H       -4.34052000      0.78383000     -0.33953000

