%mem=1GB
%nproc=8
%chk=ala_ser_ts_2.chk
# M062X/6-311+G(2df,2p) scrf=(smd,solvent=water)

ala_ser_ts_2

0 1
 C       -2.05844000      1.50718000     -0.03709000
 C       -1.10876000      0.32416000      0.19893000
 C       -1.88858000     -0.94780000     -0.09995000
 N        0.09069000      0.45421000     -0.63307000
 O       -2.01073000     -1.41876000     -1.21340000
 O       -2.48437000     -1.45362000      0.98272000
 H       -3.01585000      1.30891000      0.45902000
 H       -2.23592000      1.61757000     -1.11083000
 O       -1.50344000      2.72777000      0.41595000
 H       -0.81439000      0.31892000      1.25374000
 H       -0.16044000      0.18025000     -1.58875000
 H       -3.03002000     -2.22353000      0.72489000
 H       -1.48472000      2.71441000      1.38681000
 C        3.05632000      0.94902000     -0.84456000
 C        2.36840000      0.22510000      0.31568000
 C        1.11553000     -0.45249000     -0.17528000
 N        3.27988000     -0.74774000      0.90279000
 O        0.95079000     -1.65579000     -0.16024000
 H        2.41360000      1.72133000     -1.27148000
 H        3.33135000      0.23530000     -1.62770000
 H        3.96868000      1.42590000     -0.47373000
 H        2.01628000      0.98394000      1.03369000
 H        2.82125000     -1.21563000      1.68392000
 H        4.07134000     -0.24040000      1.29570000

