%mem=1GB
%nproc=8
%chk=ala_gly.chk
# M062X/6-31+G* opt freq scrf=(smd,solvent=water)

ala_gly

0 1
 C       -1.06975000      0.26834000     -4.25074000
 O       -1.03159000     -0.79074000     -4.83705000
 O       -1.17669000      1.46008000     -4.88532000
 H       -1.21118000      1.26211000     -5.83672000
 C       -1.00564000      0.43774000     -2.73690000
 H       -0.16043000      1.09843000     -2.50958000
 N       -0.89011000     -0.79641000     -1.98287000
 H       -0.06453000     -1.30115000     -2.29820000
 H       -1.90091000      0.98808000     -2.42353000
 C       -3.65999000     -3.01143000     -1.23966000
 C       -2.30430000     -2.39539000     -0.84328000
 C       -1.99834000     -1.19471000     -1.75872000
 N       -2.36113000     -1.94319000      0.55526000
 O       -2.86972000     -0.74411000     -2.48460000
 H       -3.61770000     -3.34336000     -2.26765000
 H       -4.43811000     -2.26866000     -1.13206000
 H       -3.87428000     -3.85401000     -0.59711000
 H       -1.52629000     -3.13741000     -0.95074000
 H       -1.47230000     -1.53772000      0.81529000
 H       -2.56292000     -2.73027000      1.15677000

