%mem=1GB
%nproc=8
%chk=ala_ser_2.chk
# M062X/6-311+G(2df,2p) scrf=(smd,solvent=water)

ala_ser_2

0 1
 C        2.36832000      1.12137000      0.47207000
 C        1.31579000      0.28330000     -0.26432000
 C        1.54261000     -1.18646000      0.06303000
 N       -0.01064000      0.69455000      0.12540000
 O        0.96072000     -1.80191000      0.93149000
 O        2.50463000     -1.71166000     -0.69926000
 H        3.36544000      0.75824000      0.20465000
 H        2.22941000      1.01662000      1.55212000
 O        2.22756000      2.49865000      0.17741000
 H        1.44911000      0.41034000     -1.34456000
 H       -0.11613000      1.37111000      0.87493000
 H        2.66356000     -2.63852000     -0.43187000
 H        2.49589000      2.64840000     -0.74439000
 C       -2.82694000     -0.64840000      1.20899000
 C       -2.43106000      0.46761000      0.24431000
 C       -1.09864000      0.08682000     -0.38424000
 N       -3.44706000      0.60710000     -0.79716000
 O       -0.99769000     -0.76856000     -1.27424000
 H       -2.07137000     -0.77719000      1.99004000
 H       -2.94191000     -1.59326000      0.66820000
 H       -3.77967000     -0.39976000      1.68744000
 H       -2.28575000      1.39363000      0.81700000
 H       -3.24641000      1.43738000     -1.35400000
 H       -4.34052000      0.78383000     -0.33953000

