%mem=1GB
%nproc=8
%chk=ala_gly_ts_2.chk
# M062X/6-311+G(2df,2p) scrf=(smd,solvent=water)

ala_gly_ts_2

0 1
 C        2.35232000      0.05024000      0.00928000
 O        2.46430000      0.14987000      1.21459000
 O        3.24062000     -0.58951000     -0.75969000
 H        3.97270000     -0.92313000     -0.20408000
 C        1.25384000      0.68829000     -0.81321000
 H        1.69462000      1.58352000     -1.26575000
 N        0.06743000      1.06627000     -0.04657000
 H        0.37428000      1.43149000      0.85981000
 H        0.97550000      0.02108000     -1.63290000
 C       -2.93179000      1.10760000      0.22285000
 C       -2.12554000     -0.03260000     -0.40359000
 C       -0.75169000     -0.09342000      0.21307000
 N       -2.82558000     -1.29619000     -0.21413000
 O       -0.34463000     -1.04680000      0.84542000
 H       -2.45887000      2.07569000      0.04748000
 H       -3.04006000      0.94909000      1.30062000
 H       -3.92936000      1.12501000     -0.22680000
 H       -1.94887000      0.21380000     -1.46341000
 H       -2.28947000     -2.04985000     -0.64277000
 H       -3.70851000     -1.24630000     -0.72029000

