%mem=1GB
%nproc=8
%chk=ala_ser.chk
# M062X/6-31+G* opt freq scrf=(smd,solvent=water)

ala_ser

0 1
 C       -3.27060000     -1.25970000     -4.33132000
 C       -3.38262000     -1.13720000     -2.79937000
 C       -2.69565000     -2.34620000     -2.13638000
 N       -2.72638000      0.10261000     -2.35684000
 O       -1.48008000     -2.37612000     -2.03423000
 O       -3.47596000     -3.46767000     -1.71254000
 H       -3.75261000     -2.17097000     -4.65593000
 H       -2.22806000     -1.28218000     -4.61529000
 O       -3.90833000     -0.13724000     -4.94829000
 H       -4.42474000     -1.11466000     -2.51494000
 H       -3.17569000      0.89665000     -2.79227000
 H       -3.63439000     -3.40973000     -0.76724000
 H       -4.83495000     -0.11574000     -4.69721000
 C       -2.56935000      1.92047000      0.70635000
 C       -2.27919000      1.85404000     -0.80558000
 C       -2.78111000      0.50986000     -1.36641000
 N       -2.97178000      2.95841000     -1.48697000
 O       -3.49519000     -0.20676000     -0.68392000
 H       -2.06028000      1.10845000      1.20656000
 H       -3.63421000      1.83566000      0.87257000
 H       -2.21690000      2.86381000      1.09954000
 H       -1.21499000      1.93869000     -0.97216000
 H       -2.78276000      2.91438000     -2.47913000
 H       -2.64384000      3.84102000     -1.11888000

