%mem=1GB
%nproc=8
%chk=alpha-L-lyxose_2.chk
# M062X/6-311+G(2df,2p) scrf=(smd,solvent=water)

alpha-L-lyxose_2

0 1
 C        1.51172000     -0.41193000      0.36228000
 C        1.28047000      1.07662000      0.56917000
 C       -0.83057000      1.02950000     -0.53841000
 C       -0.69920000     -0.47034000     -0.81811000
 C        0.17846000     -1.15826000      0.23145000
 H        2.05286000     -0.81118000      1.22907000
 H        2.22625000      1.61981000      0.51057000
 H        0.83814000      1.25491000      1.55648000
 H       -1.34023000      1.53573000     -1.36237000
 H       -0.21573000     -0.57342000     -1.79285000
 H        0.37878000     -2.18463000     -0.08991000
 O        0.44603000      1.62924000     -0.45481000
 O       -1.55708000      1.17976000      0.66045000
 H       -1.80817000      2.10847000      0.77021000
 O       -1.97026000     -1.08254000     -0.92405000
 H       -2.36546000     -1.11398000     -0.03940000
 O       -0.48248000     -1.26235000      1.48582000
 H       -0.84190000     -0.39491000      1.73377000
 O        2.23067000     -0.66407000     -0.83960000
 H        3.09527000     -0.23458000     -0.77631000

