%mem=1GB
%nproc=8
%chk=beta-L-lyxose.chk
# M062X/6-31+G** opt freq scrf=(smd,solvent=water)

beta-L-lyxose

0 1
 C       -1.10628000      0.00000000     -2.98761000
 C       -0.88089000      1.29554000     -2.19225000
 C       -1.10628000      0.00000000     -0.01812000
 C       -1.33166000     -1.29554000     -0.81348000
 C       -0.65551000     -1.23532000     -2.19225000
 H       -0.57865000      0.04699000     -3.94797000
 H       -1.25018000      2.15868000     -2.75925000
 H        0.19917000      1.45129000     -2.05682000
 H       -2.41172000     -1.45129000     -0.94891000
 H       -0.86647000     -2.15014000     -2.75925000
 O       -1.56998000      1.17724000     -0.93338000
 O       -0.84679000     -2.42881000     -0.06903000
 H       -0.34853000     -2.11274000      0.69598000
 O        0.77268000     -1.18615000     -2.01490000
 H        1.05366000     -0.26244000     -1.98000000
 O       -2.50689000     -0.12473000     -3.29795000
 H       -2.89007000      0.75810000     -3.38284000
 H       -0.06761000      0.14825000      0.23799000
 O       -1.79903000     -0.06169000      1.24279000
 H       -1.96918000      0.83749000      1.55249000

