%mem=1GB
%nproc=8
%chk=beta-L-lyxose_2.chk
# M062X/6-311+G(2df,2p) scrf=(smd,solvent=water)

beta-L-lyxose_2

0 1
 C       -1.67850000      0.02112000      0.03575000
 C       -1.12729000     -1.14046000      0.85169000
 C        1.11636000     -0.66510000      0.30055000
 C        0.72661000      0.52213000     -0.57763000
 C       -0.62189000      1.11587000     -0.14370000
 H       -2.54413000      0.44967000      0.55605000
 H       -1.83580000     -1.97199000      0.85753000
 H       -0.95052000     -0.82738000      1.89136000
 H        0.64292000      0.15312000     -1.60538000
 H       -0.96258000      1.80896000     -0.91779000
 O        0.07913000     -1.63523000      0.27687000
 O        1.73127000      1.51849000     -0.56278000
 H        1.59914000      2.05032000      0.23824000
 O       -0.47048000      1.91120000      1.02604000
 H       -0.24455000      1.36919000      1.79623000
 O       -2.03489000     -0.39961000     -1.27546000
 H       -2.69162000     -1.10684000     -1.20460000
 H        1.28838000     -0.35129000      1.34344000
 O        2.26454000     -1.25077000     -0.23661000
 H        2.65043000     -1.84782000      0.42044000

