%mem=1GB
%nproc=8
%chk=gly_ala_ts.chk
# M062X/6-31+G* opt=(ts,noeigen,calcfc) freq scrf=(smd,solvent=water)

gly_ala_ts

0 1
 C       -1.31263000      0.10095000     -0.13876000
 O       -1.88762000     -0.07835000     -1.22240000
 C       -2.02512000      0.81988000      0.99516000
 H       -2.28944000      0.11368000      1.78448000
 N       -3.27851000      1.40874000      0.46609000
 H       -3.84848000      0.69200000      0.00143000
 H       -3.08266000      2.13780000     -0.22968000
 H       -1.41557000      1.62119000      1.41301000
 C        1.32120000      1.58479000      0.85810000
 C        1.11144000      0.46245000     -0.16097000
 C        2.33599000     -0.46909000     -0.16920000
 N       -0.08090000     -0.31839000      0.13890000
 O        3.40155000      0.02874000     -0.61920000
 O        2.19754000     -1.63160000      0.29690000
 H        2.18647000      2.19030000      0.57635000
 H        1.49427000      1.16394000      1.85433000
 H        0.44086000      2.23222000      0.89835000
 H        1.00039000      0.89171000     -1.16189000
 H        0.07529000     -1.25275000      0.51084000
 H       -3.83263000      1.82723000      1.22123000

