%mem=1GB
%nproc=8
%chk=gly_ala_ts_2.chk
# M062X/6-311+G(2df,2p) scrf=(smd,solvent=water)

gly_ala_ts_2

0 1
 C       -1.28622000     -0.43006000     -0.15342000
 O       -1.55623000     -0.70071000     -1.30509000
 C       -2.33503000      0.07705000      0.79720000
 H       -2.44696000     -0.61801000      1.63243000
 N       -3.63744000      0.20896000      0.10090000
 H       -3.94628000     -0.69158000     -0.28536000
 H       -3.57130000      0.86923000     -0.68325000
 H       -2.03955000      1.05317000      1.18913000
 C        0.80680000      1.75317000      0.03786000
 C        1.00318000      0.28144000     -0.29299000
 C        2.41568000     -0.23389000      0.04052000
 N        0.00512000     -0.54159000      0.43092000
 O        3.37569000      0.54364000     -0.20897000
 O        2.51783000     -1.40775000      0.48832000
 H        1.51388000      2.36755000     -0.52339000
 H        0.95548000      1.93048000      1.10817000
 H       -0.20470000      2.07875000     -0.23074000
 H        0.89487000      0.13999000     -1.37966000
 H        0.30931000     -1.51615000      0.33850000
 H       -4.36336000      0.54726000      0.74244000

