%mem=1GB
%nproc=8
%chk=gly_ala.chk
# M062X/6-31+G* opt freq scrf=(smd,solvent=water)

gly_ala

0 1
 C        1.53020000      3.74822000      0.36772000
 O        1.53020000      2.60371000     -0.02849000
 C        1.53020000      4.17128000      1.83249000
 H        2.40325000      4.81466000      1.99500000
 N        1.53020000      3.08048000      2.78915000
 H        2.33677000      2.48536000      2.61290000
 H        0.72363000      2.48536000      2.61290000
 H        0.65715000      4.81466000      1.99500000
 C        1.11140000      3.74780000     -2.59873000
 C        1.67683000      5.00475000     -1.90960000
 C        0.84065000      6.23327000     -2.31560000
 N        1.61764000      4.83251000     -0.44999000
 O       -0.22086000      6.08241000     -2.89843000
 O        1.35389000      7.55048000     -2.09574000
 H        1.15494000      3.87507000     -3.67141000
 H        0.08449000      3.60148000     -2.29412000
 H        1.69850000      2.88596000     -2.31365000
 H        2.70317000      5.15142000     -2.21382000
 H        1.98728000      5.65753000      0.00252000
 H        1.53020000      3.46402000      3.71268000

