%mem=1GB
%nproc=8
%chk=gly_ala_2.chk
# M062X/6-311+G(2df,2p) scrf=(smd,solvent=water)

gly_ala_2

0 1
 C       -1.31263000      0.10095000     -0.13876000
 O       -1.58354000      1.20544000     -0.63249000
 C       -2.42144000     -0.89279000      0.16669000
 H       -2.39082000     -1.72365000     -0.54066000
 N       -3.72591000     -0.20551000      0.01286000
 H       -3.79904000      0.23140000     -0.91356000
 H       -3.83807000      0.54055000      0.70914000
 H       -2.35102000     -1.27817000      1.18392000
 C        1.32120000      1.58479000      0.85810000
 C        1.11144000      0.46245000     -0.16097000
 C        2.33599000     -0.46909000     -0.16920000
 N       -0.08090000     -0.31839000      0.13890000
 O        3.40155000      0.02874000     -0.61920000
 O        2.19754000     -1.63160000      0.29690000
 H        2.18647000      2.19030000      0.57635000
 H        1.49427000      1.16394000      1.85433000
 H        0.44086000      2.23222000      0.89835000
 H        1.00039000      0.89171000     -1.16189000
 H        0.07529000     -1.25275000      0.51084000
 H       -4.50241000     -0.86667000      0.12395000

