%mem=1GB
%nproc=8
%chk=linear_L_lyxose.chk
# M062X/6-31+G** opt freq scrf=(smd,solvent=water)

linear_L_lyxose

0 1
 O        0.86210000      1.59200000     -1.31110000
 O        2.32370000     -0.47070000     -0.07380000
 O        0.95200000     -2.65900000      1.15810000
 O       -3.06050000      0.20520000     -1.45730000
 C        0.31600000      0.91470000     -0.17620000
 C        0.89770000     -0.52910000     -0.08230000
 C       -1.23730000      1.01570000     -0.24840000
 C        0.42310000     -1.33850000      1.14960000
 C       -1.84940000      0.34620000     -1.37800000
 H        0.65280000      1.47270000      0.70270000
 H        0.62430000     -1.08200000     -0.98420000
 H        0.72020000     -0.83690000      2.07300000
 H       -0.66170000     -1.44920000      1.14890000
 H        1.83520000      1.58180000     -1.19560000
 H       -1.30300000     -0.00430000     -2.12820000
 H        2.62110000     -1.40320000     -0.13780000
 H        0.53110000     -3.08700000      1.93380000
 O       -1.80087000      0.46940000      0.95889000
 H       -2.07055000      1.19529000      1.53661000
 H       -1.44964000      2.06758000     -0.37029000

