%mem=1GB
%nproc=8
%chk=linear_L_lyxose_2.chk
# M062X/6-311+G(2df,2p) scrf=(smd,solvent=water)

linear_L_lyxose_2

0 1
 O       -0.39172000      2.25539000     -0.26089000
 O        2.10088000      1.15069000     -0.16922000
 O        2.47160000     -1.54609000     -0.25748000
 O       -2.13241000     -1.42992000     -1.09852000
 C       -0.15976000      1.03528000      0.42498000
 C        0.97917000      0.27618000     -0.25139000
 C       -1.50768000      0.29205000      0.45592000
 C        1.30122000     -1.05917000      0.39546000
 C       -1.85312000     -0.26363000     -0.90179000
 H        0.12566000      1.23142000      1.46903000
 H        0.72740000      0.11232000     -1.31102000
 H        1.48809000     -0.91953000      1.46764000
 H        0.46834000     -1.75683000      0.26301000
 H        0.46827000      2.67645000     -0.41088000
 H       -1.84526000      0.46725000     -1.72743000
 H        2.85599000      0.70802000     -0.58332000
 H        2.76075000     -2.35401000      0.18657000
 O       -1.53026000     -0.74819000      1.40427000
 H       -1.48042000     -0.35731000      2.28773000
 H       -2.27256000      1.05295000      0.67439000

