%mem=1GB
%nproc=8
%chk=ser_ala_ts.chk
# M062X/6-31+G* opt=(ts,noeigen,calcfc) freq scrf=(smd,solvent=water)

ser_ala_ts

0 1
 C       -1.96262000      1.13387000      1.97892000
 C       -1.09797000      1.73550000      0.86694000
 C       -0.62638000      0.65207000     -0.09707000
 N       -1.93779000      2.69102000      0.09873000
 O       -1.30484000      0.38784000     -1.10089000
 H       -1.34119000      0.48097000      2.59867000
 H       -2.77202000      0.54581000      1.53613000
 O       -2.57148000      2.15915000      2.74121000
 H       -0.26132000      2.29537000      1.29028000
 H       -1.37127000      3.29466000     -0.50838000
 H       -2.47076000      3.28366000      0.74877000
 H       -1.90394000      2.55658000      3.32456000
 C        2.34124000      1.63866000      0.47319000
 C        1.80646000      0.39676000     -0.24323000
 C        2.77440000     -0.78365000     -0.04686000
 N        0.48896000      0.01930000      0.25119000
 O        3.90312000     -0.66355000     -0.59122000
 O        2.38692000     -1.75593000      0.65468000
 H        3.29947000      1.93570000      0.03966000
 H        2.48514000      1.43001000      1.53858000
 H        1.63904000      2.47033000      0.36927000
 H        1.72626000      0.59879000     -1.31632000
 H        0.44707000     -0.81920000      0.82719000
 H       -2.59825000      2.17506000     -0.49936000

