%mem=1GB
%nproc=8
%chk=ser_ala_ts_2.chk
# M062X/6-311+G(2df,2p) scrf=(smd,solvent=water)

ser_ala_ts_2

0 1
 C       -2.42579000     -1.21406000     -0.08104000
 C       -1.84529000      0.17143000      0.22588000
 C       -0.61273000      0.48489000     -0.59188000
 N       -2.89401000      1.18770000     -0.05177000
 O       -0.61688000      1.38256000     -1.40785000
 H       -1.68432000     -1.97756000      0.16311000
 H       -2.67838000     -1.28114000     -1.14323000
 O       -3.62976000     -1.40004000      0.63923000
 H       -1.58798000      0.23964000      1.28830000
 H       -2.60297000      2.12723000      0.24398000
 H       -3.75661000      0.93640000      0.44862000
 H       -3.41229000     -1.57725000      1.56961000
 C        1.52315000      0.89726000      1.56073000
 C        1.68396000      0.43971000      0.11948000
 C        2.95064000     -0.40434000     -0.11950000
 N        0.50086000     -0.34881000     -0.30214000
 O        3.97687000     -0.09450000      0.54166000
 O        2.88566000     -1.30826000     -0.99695000
 H        2.36666000      1.52390000      1.85827000
 H        1.46794000      0.03583000      2.23434000
 H        0.60796000      1.48870000      1.67825000
 H        1.80145000      1.32173000     -0.52949000
 H        0.76804000     -0.82959000     -1.16818000
 H       -3.10817000      1.23252000     -1.05693000

