%mem=1GB
%nproc=8
%chk=ser_ala.chk
# M062X/6-31+G* opt freq scrf=(smd,solvent=water)

ser_ala

0 1
 C       -0.36449000      3.27496000      0.05140000
 C       -0.47651000      3.39746000      1.58335000
 C        0.21046000      2.18845000      2.24634000
 N        0.17973000      4.63726000      2.02588000
 O        1.42603000      2.15854000      2.34849000
 H       -0.84650000      2.36369000     -0.27322000
 H        0.67806000      3.25248000     -0.23258000
 O       -1.00222000      4.39742000     -0.56557000
 H       -1.51863000      3.42000000      1.86778000
 H        0.10778000      4.71703000      3.03109000
 H       -0.26958000      5.43131000      1.59045000
 H       -1.92884000      4.41892000     -0.31449000
 C       -0.07182000      0.27129000      5.01868000
 C        0.03429000     -0.06838000      3.51939000
 C       -0.74459000     -1.36569000      3.23019000
 N       -0.53444000      1.03174000      2.72573000
 O       -1.48882000     -1.83154000      4.07775000
 O       -0.52186000     -2.07464000      2.00767000
 H        0.34610000     -0.53770000      5.60146000
 H       -1.11086000      0.40793000      5.28413000
 H        0.47495000      1.18164000      5.22122000
 H        1.07263000     -0.20511000      3.25365000
 H       -0.46624000      0.80867000      1.74205000
 H        1.14415000      4.61572000      1.76239000

