%mem=1GB
%nproc=8
%chk=ser_ala_2.chk
# M062X/6-311+G(2df,2p) scrf=(smd,solvent=water)

ser_ala_2

0 1
 C        2.41856000     -1.05642000      0.54048000
 C        1.92264000      0.03317000     -0.41501000
 C        0.62638000      0.65207000      0.09707000
 N        2.94987000      1.10611000     -0.46033000
 O        0.67233000      1.65338000      0.82718000
 H        1.70742000     -1.88755000      0.53180000
 H        2.48618000     -0.65146000      1.55460000
 O        3.72136000     -1.47512000      0.17936000
 H        1.81217000     -0.36317000     -1.42662000
 H        2.79468000      1.75040000     -1.24438000
 H        3.88413000      0.68709000     -0.55741000
 H        3.66353000     -2.03931000     -0.60943000
 C       -2.34124000      1.63866000     -0.47319000
 C       -1.80646000      0.39676000      0.24323000
 C       -2.77440000     -0.78365000      0.04686000
 N       -0.48896000      0.01930000     -0.25119000
 O       -3.90312000     -0.66355000      0.59122000
 O       -2.38692000     -1.75593000     -0.65468000
 H       -3.29947000      1.93570000     -0.03966000
 H       -2.48514000      1.43001000     -1.53858000
 H       -1.63904000      2.47033000     -0.36927000
 H       -1.72626000      0.59879000      1.31632000
 H       -0.44707000     -0.81920000     -0.82719000
 H        2.92050000      1.65667000      0.40924000

